50
21049

767 533
323 401
198 488
853 367
35 620
230 192
40 880
76 701
263 864
430 117
96 577
19 304
1000 633
113 71
782 652
871 573
781 646
208 76
820 959
151 895
663 10
765 421
831 419
123 461
471 587
342 793
550 352
960 526
700 756
479 396
376 217
605 752
503 274
527 394
456 283
169 198
879 687
358 409
667 50
41 91
643 852
387 533
663 356
30 878
706 567
197 951
132 861
874 334
886 734
115 212
